#######################################
### Exact MIP solver for the HHCRSP ###
#######################################
-- Instance file: new-instances/HHCRSP_100_20_73_1.6_C_C.txt
-- Max threads: 4
-- Time limit: 999999 seconds
-- Use initial solution: No
Trivial flow violations prevented generating 46371 variables.
Model exported.
Version identifier: 20.1.0.0 | 2020-11-10 | 9bedb6d68
CPXPARAM_Threads                                 4
CPXPARAM_TimeLimit                               999999
Parallel mode: deterministic, using up to 4 threads for concurrent optimization:
 * Starting dual Simplex on 1 thread...
 * Starting Barrier on 3 threads...
Tried aggregator 1 time.
LP Presolve eliminated 5418 rows and 1240 columns.
Reduced LP has 50958 rows, 48786 columns, and 573575 nonzeros.
Presolve time = 0.32 sec. (149.87 ticks)
Symmetry aggregator did 54609 additional substitutions.

Iteration log . . .
Iteration:     1   Dual objective     =             0.000000
Iteration:   474   Dual objective     =           122.000000

Dual crossover.
  Dual:  Fixing 229 variables.
      228 DMoves:  Infeasibility  1.21014330e-13  Objective  1.22669900e+02
        0 DMoves:  Infeasibility  5.09315016e-14  Objective  1.22669900e+02
  Dual:  Pushed 0, exchanged 229.
  Primal:  Fixing 91 variables.
       90 PMoves:  Infeasibility  8.88178420e-16  Objective  1.22669900e+02
        0 PMoves:  Infeasibility  1.33226763e-15  Objective  1.22669900e+02
  Primal:  Pushed 53, exchanged 38.

Dual simplex solved model.


Solution status from MIP model:
-- Processing time: 0.549 sec.
-- Memory used: 108.116 MB
-- Best bound: inf
-- Obj value: 122.67
-- Gap: inf%
-- Total distance: 368.01
-- Total tardiness: 0
-- Largest tardiness: 0
